0 8 5 7 4 3 5 1 1 1 
8 0 2 6 9 3 3 5 2 3 
5 2 0 2 9 6 4 3 2 6 
7 6 2 0 5 1 5 8 4 9 
4 9 9 5 0 1 2 1 9 6 
3 3 6 1 1 0 7 2 1 8 
5 3 4 5 2 7 0 1 3 9 
1 5 3 8 1 2 1 0 9 4 
1 2 2 4 9 1 3 9 0 1 
1 3 6 9 6 8 9 4 1 0 

